min: c;

c = 3.66093676629422 * u5_t4_h2 + 3.66093676629422 * u5_t7_h2 + 3.73657873279791 * u5_t4_h3 + 3.73657873279791 * u5_t7_h3 + 3.22313811146948 * u5_t1_h4 + 3.22313811146948 * u5_t3_h4 + 3.22313811146948 * u5_t4_h4 + 3.22313811146948 * u5_t7_h4 + 3.15095385321153 * u5_t1_h5 + 3.15095385321153 * u5_t3_h5 + 3.15095385321153 * u5_t4_h5 + 3.15095385321153 * u5_t7_h5 + 4.09587938346006 * u5_t1_h6 + 4.09587938346006 * u5_t3_h6 + 4.09587938346006 * u5_t4_h6 + 4.09587938346006 * u5_t6_h6 + 4.09587938346006 * u5_t7_h6 + 4.37609117430371 * u5_t1_h7 + 4.37609117430371 * u5_t3_h7 + 4.37609117430371 * u5_t4_h7 + 4.37609117430371 * u5_t6_h7 + 4.95914953990726 * u5_t1_h8 + 4.95914953990726 * u5_t3_h8 + 4.95914953990726 * u5_t4_h8 + 4.95914953990726 * u5_t6_h8 + 4.58348917898439 * u5_t1_h9 + 4.58348917898439 * u5_t3_h9 + 4.58348917898439 * u5_t4_h9 + 4.58348917898439 * u5_t6_h9 + 5.79346166764669 * u5_t1_h10 + 5.79346166764669 * u5_t3_h10 + 5.79346166764669 * u5_t4_h10 + 5.79346166764669 * u5_t6_h10 + 3.69434948859594 * u5_t1_h11 + 3.69434948859594 * u5_t3_h11 + 3.69434948859594 * u5_t4_h11 + 3.69434948859594 * u5_t6_h11 + 6.14565914943632 * u5_t1_h12 + 6.14565914943632 * u5_t3_h12 + 6.14565914943632 * u5_t4_h12 + 6.14565914943632 * u5_t6_h12 + 4.49925183728938 * u5_t1_h13 + 4.49925183728938 * u5_t3_h13 + 4.49925183728938 * u5_t4_h13 + 4.49925183728938 * u5_t6_h13 + 4.49925183728938 * u5_t8_h13 + 5.09729702322129 * u5_t1_h14 + 5.09729702322129 * u5_t3_h14 + 5.09729702322129 * u5_t4_h14 + 5.09729702322129 * u5_t6_h14 + 5.09729702322129 * u5_t8_h14 + 6.3499732614184 * u5_t1_h15 + 6.3499732614184 * u5_t3_h15 + 6.3499732614184 * u5_t4_h15 + 6.3499732614184 * u5_t6_h15 + 6.3499732614184 * u5_t8_h15 + 6.3499732614184 * u5_t9_h15 + 5.6820029228977 * u5_t1_h16 + 5.6820029228977 * u5_t3_h16 + 5.6820029228977 * u5_t4_h16 + 5.6820029228977 * u5_t5_h16 + 5.6820029228977 * u5_t6_h16 + 5.6820029228977 * u5_t8_h16 + 5.6820029228977 * u5_t9_h16 + 5.92594576570882 * u5_t1_h17 + 5.92594576570882 * u5_t5_h17 + 5.92594576570882 * u5_t6_h17 + 5.92594576570882 * u5_t8_h17 + 5.92594576570882 * u5_t9_h17 + 5.92594576570882 * u5_t10_h17 + 6.35569015297611 * u5_t1_h18 + 6.35569015297611 * u5_t2_h18 + 6.35569015297611 * u5_t5_h18 + 6.35569015297611 * u5_t6_h18 + 6.35569015297611 * u5_t9_h18 + 6.35569015297611 * u5_t10_h18 + 5.47307725077287 * u5_t1_h19 + 5.47307725077287 * u5_t2_h19 + 5.47307725077287 * u5_t5_h19 + 5.47307725077287 * u5_t9_h19 + 5.47307725077287 * u5_t10_h19 + 5.52474535299687 * u5_t1_h20 + 5.52474535299687 * u5_t2_h20 + 5.52474535299687 * u5_t5_h20 + 5.52474535299687 * u5_t9_h20 + 5.52474535299687 * u5_t10_h20 + 5.63233579101071 * u5_t2_h21 + 5.63233579101071 * u5_t5_h21 + 5.63233579101071 * u5_t9_h21 + 5.63233579101071 * u5_t10_h21 + 5.16627735041401 * u5_t2_h22 + 5.16627735041401 * u5_t5_h22 + 5.16627735041401 * u5_t9_h22 + 5.16627735041401 * u5_t10_h22 + 5.72798505019054 * u5_t5_h23 + 5.72798505019054 * u5_t9_h23 + 5.72798505019054 * u5_t10_h23;
0 <= u5_t1_h4 <= 1;
0 <= u5_t1_h5 <= 1;
0 <= u5_t1_h6 <= 1;
0 <= u5_t1_h7 <= 1;
0 <= u5_t1_h8 <= 1;
0 <= u5_t1_h9 <= 1;
0 <= u5_t1_h10 <= 1;
0 <= u5_t1_h11 <= 1;
0 <= u5_t1_h12 <= 1;
0 <= u5_t1_h13 <= 1;
0 <= u5_t1_h14 <= 1;
0 <= u5_t1_h15 <= 1;
0 <= u5_t1_h16 <= 1;
0 <= u5_t1_h17 <= 1;
0 <= u5_t1_h18 <= 1;
0 <= u5_t1_h19 <= 1;
0 <= u5_t1_h20 <= 1;
u5_t1_h4 + u5_t1_h5 + u5_t1_h6 + u5_t1_h7 + u5_t1_h8 + u5_t1_h9 + u5_t1_h10 + u5_t1_h11 + u5_t1_h12 + u5_t1_h13 + u5_t1_h14 + u5_t1_h15 + u5_t1_h16 + u5_t1_h17 + u5_t1_h18 + u5_t1_h19 + u5_t1_h20 = 1;
0 <= u5_t2_h18 <= 1;
0 <= u5_t2_h19 <= 1;
0 <= u5_t2_h20 <= 1;
0 <= u5_t2_h21 <= 1;
0 <= u5_t2_h22 <= 1;
u5_t2_h18 + u5_t2_h19 + u5_t2_h20 + u5_t2_h21 + u5_t2_h22 = 3;
0 <= u5_t3_h4 <= 1;
0 <= u5_t3_h5 <= 1;
0 <= u5_t3_h6 <= 1;
0 <= u5_t3_h7 <= 1;
0 <= u5_t3_h8 <= 1;
0 <= u5_t3_h9 <= 1;
0 <= u5_t3_h10 <= 1;
0 <= u5_t3_h11 <= 1;
0 <= u5_t3_h12 <= 1;
0 <= u5_t3_h13 <= 1;
0 <= u5_t3_h14 <= 1;
0 <= u5_t3_h15 <= 1;
0 <= u5_t3_h16 <= 1;
u5_t3_h4 + u5_t3_h5 + u5_t3_h6 + u5_t3_h7 + u5_t3_h8 + u5_t3_h9 + u5_t3_h10 + u5_t3_h11 + u5_t3_h12 + u5_t3_h13 + u5_t3_h14 + u5_t3_h15 + u5_t3_h16 = 1;
0 <= u5_t4_h2 <= 1;
0 <= u5_t4_h3 <= 1;
0 <= u5_t4_h4 <= 1;
0 <= u5_t4_h5 <= 1;
0 <= u5_t4_h6 <= 1;
0 <= u5_t4_h7 <= 1;
0 <= u5_t4_h8 <= 1;
0 <= u5_t4_h9 <= 1;
0 <= u5_t4_h10 <= 1;
0 <= u5_t4_h11 <= 1;
0 <= u5_t4_h12 <= 1;
0 <= u5_t4_h13 <= 1;
0 <= u5_t4_h14 <= 1;
0 <= u5_t4_h15 <= 1;
0 <= u5_t4_h16 <= 1;
u5_t4_h2 + u5_t4_h3 + u5_t4_h4 + u5_t4_h5 + u5_t4_h6 + u5_t4_h7 + u5_t4_h8 + u5_t4_h9 + u5_t4_h10 + u5_t4_h11 + u5_t4_h12 + u5_t4_h13 + u5_t4_h14 + u5_t4_h15 + u5_t4_h16 = 3;
0 <= u5_t5_h16 <= 1;
0 <= u5_t5_h17 <= 1;
0 <= u5_t5_h18 <= 1;
0 <= u5_t5_h19 <= 1;
0 <= u5_t5_h20 <= 1;
0 <= u5_t5_h21 <= 1;
0 <= u5_t5_h22 <= 1;
0 <= u5_t5_h23 <= 1;
u5_t5_h16 + u5_t5_h17 + u5_t5_h18 + u5_t5_h19 + u5_t5_h20 + u5_t5_h21 + u5_t5_h22 + u5_t5_h23 = 2;
0 <= u5_t6_h6 <= 1;
0 <= u5_t6_h7 <= 1;
0 <= u5_t6_h8 <= 1;
0 <= u5_t6_h9 <= 1;
0 <= u5_t6_h10 <= 1;
0 <= u5_t6_h11 <= 1;
0 <= u5_t6_h12 <= 1;
0 <= u5_t6_h13 <= 1;
0 <= u5_t6_h14 <= 1;
0 <= u5_t6_h15 <= 1;
0 <= u5_t6_h16 <= 1;
0 <= u5_t6_h17 <= 1;
0 <= u5_t6_h18 <= 1;
u5_t6_h6 + u5_t6_h7 + u5_t6_h8 + u5_t6_h9 + u5_t6_h10 + u5_t6_h11 + u5_t6_h12 + u5_t6_h13 + u5_t6_h14 + u5_t6_h15 + u5_t6_h16 + u5_t6_h17 + u5_t6_h18 = 2;
0 <= u5_t7_h2 <= 1;
0 <= u5_t7_h3 <= 1;
0 <= u5_t7_h4 <= 1;
0 <= u5_t7_h5 <= 1;
0 <= u5_t7_h6 <= 1;
u5_t7_h2 + u5_t7_h3 + u5_t7_h4 + u5_t7_h5 + u5_t7_h6 = 1;
0 <= u5_t8_h13 <= 1;
0 <= u5_t8_h14 <= 1;
0 <= u5_t8_h15 <= 1;
0 <= u5_t8_h16 <= 1;
0 <= u5_t8_h17 <= 1;
u5_t8_h13 + u5_t8_h14 + u5_t8_h15 + u5_t8_h16 + u5_t8_h17 = 3;
0 <= u5_t9_h15 <= 1;
0 <= u5_t9_h16 <= 1;
0 <= u5_t9_h17 <= 1;
0 <= u5_t9_h18 <= 1;
0 <= u5_t9_h19 <= 1;
0 <= u5_t9_h20 <= 1;
0 <= u5_t9_h21 <= 1;
0 <= u5_t9_h22 <= 1;
0 <= u5_t9_h23 <= 1;
u5_t9_h15 + u5_t9_h16 + u5_t9_h17 + u5_t9_h18 + u5_t9_h19 + u5_t9_h20 + u5_t9_h21 + u5_t9_h22 + u5_t9_h23 = 1;
0 <= u5_t10_h17 <= 1;
0 <= u5_t10_h18 <= 1;
0 <= u5_t10_h19 <= 1;
0 <= u5_t10_h20 <= 1;
0 <= u5_t10_h21 <= 1;
0 <= u5_t10_h22 <= 1;
0 <= u5_t10_h23 <= 1;
u5_t10_h17 + u5_t10_h18 + u5_t10_h19 + u5_t10_h20 + u5_t10_h21 + u5_t10_h22 + u5_t10_h23 = 1;
